(set-info :source |printed by MathSAT|)
(declare-fun |.x{14}| () (Array Int Int))
(declare-fun |.x{19}| () (Array Int Int))
(declare-fun |.x{15}| () (Array Int Int))
(declare-fun |.x{20}| () (Array Int Int))
(declare-fun |.x{16}| () Int)
(declare-fun |.y{6}| () Int)
(declare-fun |.x{17}| () Int)
(declare-fun |.y{7}| () Int)
(declare-fun |.y{3}| () (Array Int Int))
(declare-fun |.x{18}| () (Array Int Int))
(declare-fun |.y{4}| () Int)
(declare-fun |.x{21}| () Int)
(declare-fun |.y{5}| () Int)
(declare-fun |.x{22}| () Int)
(declare-fun |.loc{2}| () Bool)
(declare-fun |.loc{3}| () Bool)
(declare-fun |.x{9}| () Int)
(declare-fun |.x{38}| () Int)
(define-fun .def_12 () Int (! |.x{16}| :next |.y{6}|))
(define-fun .def_77 () Bool (= .def_12 0))
(define-fun .def_22 () Bool (! |.loc{2}| :next |.loc{3}|))
(define-fun .def_24 () Bool (not .def_22))
(define-fun .def_78 () Bool (! (and .def_24 .def_77) :init true))
(define-fun .def_8 () (Array Int Int) (! |.x{14}| :next |.x{19}|))
(define-fun .def_72 () Bool (= .def_8 |.x{19}|))
(define-fun .def_10 () (Array Int Int) (! |.x{15}| :next |.x{20}|))
(define-fun .def_71 () Bool (= .def_10 |.x{20}|))
(define-fun .def_73 () Bool (and .def_71 .def_72))
(define-fun .def_74 () Bool (and |.loc{3}| .def_73))
(define-fun .def_66 () Bool (= |.x{21}| 0))
(define-fun .def_14 () Int (! |.x{17}| :next |.y{7}|))
(define-fun .def_64 () Bool (= .def_14 |.x{22}|))
(define-fun .def_67 () Bool (and .def_64 .def_66))
(define-fun .def_68 () Bool (and .def_24 .def_67))
(define-fun .def_25 () Bool (<= .def_14 .def_12))
(define-fun .def_69 () Bool (and .def_25 .def_68))
(define-fun .def_18 () Int (! |.y{4}| :next |.x{21}|))
(define-fun .def_58 () Int (select .def_10 .def_18))
(define-fun .def_59 () Int (* (- 1) .def_58))
(define-fun .def_57 () Int (select .def_8 .def_18))
(define-fun .def_60 () Int (+ .def_57 .def_59))
(define-fun .def_16 () (Array Int Int) (! |.y{3}| :next |.x{18}|))
(define-fun .def_61 () (Array Int Int) (store .def_16 .def_18 .def_60))
(define-fun .def_62 () Bool (= |.x{18}| .def_61))
(define-fun .def_20 () Int (! |.y{5}| :next |.x{22}|))
(define-fun .def_54 () Bool (<= .def_20 .def_18))
(define-fun .def_55 () Bool (not .def_54))
(define-fun .def_52 () Bool (= .def_20 |.x{22}|))
(define-fun .def_48 () Int (* (- 1) |.x{21}|))
(define-fun .def_49 () Int (+ .def_18 .def_48))
(define-fun .def_50 () Bool (= .def_49 (- 1)))
(define-fun .def_51 () Bool (and .def_22 .def_50))
(define-fun .def_53 () Bool (and .def_51 .def_52))
(define-fun .def_56 () Bool (and .def_53 .def_55))
(define-fun .def_63 () Bool (and .def_56 .def_62))
(define-fun .def_70 () Bool (or .def_63 .def_69))
(define-fun .def_75 () Bool (and .def_70 .def_74))
(define-fun .def_41 () Int (* (- 1) |.y{6}|))
(define-fun .def_42 () Int (+ .def_12 .def_41))
(define-fun .def_43 () Bool (= .def_42 (- 1)))
(define-fun .def_37 () Int (* (- 1) |.x{9}|))
(define-fun .def_38 () (Array Int Int) (store .def_10 .def_12 .def_37))
(define-fun .def_39 () Bool (= |.x{20}| .def_38))
(define-fun .def_33 () (Array Int Int) (store .def_8 .def_12 |.x{9}|))
(define-fun .def_34 () Bool (= |.x{19}| .def_33))
(define-fun .def_30 () Bool (= .def_14 |.y{7}|))
(define-fun .def_28 () Bool (not |.loc{3}|))
(define-fun .def_26 () Bool (not .def_25))
(define-fun .def_27 () Bool (and .def_24 .def_26))
(define-fun .def_29 () Bool (and .def_27 .def_28))
(define-fun .def_31 () Bool (and .def_29 .def_30))
(define-fun .def_35 () Bool (and .def_31 .def_34))
(define-fun .def_40 () Bool (and .def_35 .def_39))
(define-fun .def_44 () Bool (and .def_40 .def_43))
(define-fun .def_76 () Bool (! (or .def_44 .def_75) :trans true))
(define-fun .def_79 () Int (! |.x{38}| :next |.xpv{1}|))
(define-fun .def_85 () Bool (<= .def_79 0))
(define-fun .def_86 () Bool (not .def_85))
(define-fun .def_87 () Bool (and .def_54 .def_86))
(define-fun .def_83 () Bool (<= .def_20 .def_79))
(define-fun .def_84 () Bool (not .def_83))
(define-fun .def_88 () Bool (and .def_84 .def_87))
(define-fun .def_80 () Int (select .def_16 .def_79))
(define-fun .def_81 () Bool (= .def_80 0))
(define-fun .def_82 () Bool (not .def_81))
(define-fun .def_89 () Bool (and .def_82 .def_88))
(define-fun .def_90 () Bool (and .def_22 .def_89))
(define-fun .def_92 () Bool (! (not .def_90) :invar-property 0))
(assert true)
